FILENAME:   /home/mcs001/s132664/testsets/IP/miplib2017/neos-956971.mps.gz
SETTINGS:   settings_final_nosym_norestarts
TIMELIMIT:  7200
OUTPUTNAME: final_miplib_symretope_if_extended_generating_set_cpx_v802__settings_final_nosym_norestarts__4__
BINNAME:    bin/sbcs.linux.x86_64.gnu.opt.cpx
BASENAME:   neos-956971.mps.gz
SEED:       4
@01 /home/mcs001/s132664/testsets/IP/miplib2017/neos-956971.mps.gz ===========
@02 neos-956971.mps.gz
@03 1686664506
SCIP version 8.0.2 [precision: 8 byte] [memory: block] [mode: optimized] [LP solver: CPLEX 20.1.0.0] [GitHash: 5f0473c]
Copyright (C) 2002-2022 Konrad-Zuse-Zentrum fuer Informationstechnik Berlin (ZIB)

Symretope propagation methods - (c) Jasper van Doornmalen, Christopher Hojny.
[GitHash: 2fd0484]

reading parameter file <../settings/settings_final_nosym_norestarts.set> ...

Changed settings:
limits/time = 7200
limits/restarts = 0
misc/usesymmetry = 0
randomization/randomseedshift = 4
constraints/orbisack/sepafreq = -1
constraints/symresack/sepafreq = -1
propagating/symmetry/detectsubgroups = FALSE
propagating/symmetry/usesymretopes = FALSE
propagating/symmetry/relabelsymretopes = 0
propagating/symmetry/ofsymcomptiming = 0
constraints/symretope/sepafreq = -1
constraints/symretope/peek = FALSE


solving problem ...

original problem has 57756 variables (57756 bin, 0 int, 0 impl, 0 cont) and 2527 constraints
feasible solution found by trivial heuristic after 0.4 seconds, objective value 0.000000e+00
presolving:
(round 1, fast)       47 del vars, 1 del conss, 0 add conss, 0 chg bounds, 170 chg sides, 935 chg coeffs, 0 upgd conss, 0 impls, 5980 clqs
(round 2, exhaustive) 47 del vars, 396 del conss, 0 add conss, 0 chg bounds, 170 chg sides, 935 chg coeffs, 0 upgd conss, 0 impls, 5980 clqs
(round 3, exhaustive) 47 del vars, 396 del conss, 0 add conss, 0 chg bounds, 170 chg sides, 935 chg coeffs, 2127 upgd conss, 0 impls, 5980 clqs
(round 4, fast)       47 del vars, 396 del conss, 0 add conss, 0 chg bounds, 170 chg sides, 7279 chg coeffs, 2127 upgd conss, 0 impls, 5980 clqs
(round 5, fast)       47 del vars, 396 del conss, 0 add conss, 0 chg bounds, 274 chg sides, 32031 chg coeffs, 2127 upgd conss, 0 impls, 5980 clqs
(round 6, exhaustive) 47 del vars, 646 del conss, 0 add conss, 0 chg bounds, 274 chg sides, 32031 chg coeffs, 2127 upgd conss, 0 impls, 5980 clqs
(round 7, exhaustive) 47 del vars, 671 del conss, 0 add conss, 0 chg bounds, 274 chg sides, 32031 chg coeffs, 2127 upgd conss, 0 impls, 5980 clqs
(round 8, exhaustive) 47 del vars, 671 del conss, 0 add conss, 0 chg bounds, 274 chg sides, 32031 chg coeffs, 2131 upgd conss, 0 impls, 5980 clqs
(round 9, medium)     51 del vars, 675 del conss, 0 add conss, 0 chg bounds, 274 chg sides, 32031 chg coeffs, 2131 upgd conss, 0 impls, 5980 clqs
(round 10, fast)       51 del vars, 679 del conss, 4 add conss, 0 chg bounds, 274 chg sides, 32031 chg coeffs, 2131 upgd conss, 0 impls, 5980 clqs
(round 11, exhaustive) 51 del vars, 679 del conss, 4 add conss, 0 chg bounds, 274 chg sides, 32031 chg coeffs, 2135 upgd conss, 0 impls, 5980 clqs
presolving (12 rounds: 12 fast, 8 medium, 7 exhaustive):
 83 deleted vars, 679 deleted constraints, 4 added constraints, 0 tightened bounds, 0 added holes, 274 changed sides, 32031 changed coefficients
 0 implications, 5980 cliques
presolved problem has 57673 variables (57673 bin, 0 int, 0 impl, 0 cont) and 1852 constraints
    634 constraints of type <knapsack>
   1218 constraints of type <setppc>
transformed objective value is always integral (scale: 0.00222222222222222)
Presolving Time: 5.46
transformed 1/1 original solutions to the transformed problem space

 time | node  | left  |LP iter|LP it/n|mem/heur|mdpt |vars |cons |rows |cuts |sepa|confs|strbr|  dualbound   | primalbound  |  gap   | compl. 
p 7.3s|     1 |     0 |    25 |     - |  clique|   0 |  57k|1849 |1849 |   0 |  0 |   0 |   0 |-5.754400e+04 |-2.296956e+02 |  Large | unknown
 14.4s|     1 |     0 |   109 |     - |   414M |   0 |  57k|1849 |1849 |   0 |  0 |   0 |   0 |-2.378044e+02 |-2.296956e+02 |   3.53%| unknown
 16.3s|     1 |     0 |   791 |     - |   432M |   0 |  57k|1850 |1896 |  47 |  1 |   1 |   0 |-2.378044e+02 |-2.296956e+02 |   3.53%| unknown
 18.4s|     1 |     0 |  1348 |     - |   434M |   0 |  57k|1850 |1921 |  72 |  2 |   1 |   0 |-2.378044e+02 |-2.296956e+02 |   3.53%| unknown
 21.3s|     1 |     0 |  6010 |     - |   435M |   0 |  57k|1850 |1980 | 131 |  3 |   1 |   0 |-2.377948e+02 |-2.296956e+02 |   3.53%| unknown
 24.4s|     1 |     0 |  7864 |     - |   443M |   0 |  57k|1850 |2019 | 170 |  4 |   1 |   0 |-2.377837e+02 |-2.296956e+02 |   3.52%| unknown
 27.1s|     1 |     0 |  9783 |     - |   447M |   0 |  57k|1851 |2058 | 209 |  5 |   2 |   0 |-2.377789e+02 |-2.296956e+02 |   3.52%| unknown
 29.6s|     1 |     0 | 11592 |     - |   448M |   0 |  57k|1851 |2082 | 233 |  6 |   2 |   0 |-2.377751e+02 |-2.296956e+02 |   3.52%| unknown
 32.0s|     1 |     0 | 12579 |     - |   452M |   0 |  57k|1851 |2099 | 250 |  7 |   2 |   0 |-2.377710e+02 |-2.296956e+02 |   3.52%| unknown
 33.5s|     1 |     0 | 12922 |     - |   453M |   0 |  57k|1852 |2105 | 256 |  8 |   3 |   0 |-2.377704e+02 |-2.296956e+02 |   3.52%| unknown
 35.0s|     1 |     0 | 13029 |     - |   454M |   0 |  57k|1852 |2107 | 258 |  9 |   3 |   0 |-2.377704e+02 |-2.296956e+02 |   3.52%| unknown
 36.1s|     1 |     0 | 13194 |     - |   454M |   0 |  57k|1853 |2110 | 261 | 10 |   4 |   0 |-2.377704e+02 |-2.296956e+02 |   3.52%| unknown
 37.1s|     1 |     0 | 13321 |     - |   454M |   0 |  57k|1854 |2113 | 264 | 11 |   5 |   0 |-2.377704e+02 |-2.296956e+02 |   3.52%| unknown
 38.2s|     1 |     0 | 13387 |     - |   455M |   0 |  57k|1854 |2115 | 266 | 12 |   5 |   0 |-2.377704e+02 |-2.296956e+02 |   3.52%| unknown
 39.2s|     1 |     0 | 13470 |     - |   455M |   0 |  57k|1855 |2117 | 268 | 13 |   6 |   0 |-2.377704e+02 |-2.296956e+02 |   3.52%| unknown
 time | node  | left  |LP iter|LP it/n|mem/heur|mdpt |vars |cons |rows |cuts |sepa|confs|strbr|  dualbound   | primalbound  |  gap   | compl. 
d47.5s|     1 |     0 | 19550 |     - |farkasdi|   0 |  57k|1855 |2117 |   0 | 13 |   6 |   0 |-2.377704e+02 |-2.377689e+02 |   0.00%| unknown
 47.6s|     1 |     0 | 19550 |     - |   458M |   0 |  57k|1855 |2117 | 268 | 13 |   6 |   0 |-2.377689e+02 |-2.377689e+02 |   0.00%| unknown

SCIP Status        : problem is solved [optimal solution found]
Solving Time (sec) : 47.57
Solving Nodes      : 1
Primal Bound       : -2.37768888888889e+02 (3 solutions)
Dual Bound         : -2.37768888888889e+02
Gap                : 0.00 %
SCIP Status        : problem is solved [optimal solution found]
Total Time         :      47.93
  solving          :      47.57
  presolving       :       5.46 (included in solving)
  reading          :       0.36
  copying          :       0.15 (1 #copies) (minimal 0.15, maximal 0.15, average 0.15)
Original Problem   :
  Problem name     : neos-956971
  Variables        : 57756 (57756 binary, 0 integer, 0 implicit integer, 0 continuous)
  Constraints      : 2527 initial, 2527 maximal
  Objective        : minimize, 57621 non-zeros (abs.min = 0.00222222, abs.max = 1)
Presolved Problem  :
  Problem name     : t_neos-956971
  Variables        : 57673 (57673 binary, 0 integer, 0 implicit integer, 0 continuous)
  Constraints      : 1852 initial, 1855 maximal
  Objective        : minimize, 57589 non-zeros (abs.min = 1, abs.max = 450)
  Nonzeros         : 388951 constraint, 967120 clique table
Presolvers         :   ExecTime  SetupTime  Calls  FixedVars   AggrVars   ChgTypes  ChgBounds   AddHoles    DelCons    AddCons   ChgSides   ChgCoefs
  boundshift       :       0.00       0.00      0          0          0          0          0          0          0          0          0          0
  convertinttobin  :       0.00       0.00      0          0          0          0          0          0          0          0          0          0
  domcol           :       0.54       0.00      1          0          0          0          0          0          0          0          0          0
  dualagg          :       0.00       0.00      0          0          0          0          0          0          0          0          0          0
  dualcomp         :       0.00       0.00      0          0          0          0          0          0          0          0          0          0
  dualinfer        :       0.00       0.00      0          0          0          0          0          0          0          0          0          0
  dualsparsify     :       0.15       0.00      1          0          0          0          0          0          0          0          0          0
  gateextraction   :       0.00       0.00      0          0          0          0          0          0          0          0          0          0
  implics          :       0.01       0.00      8          0          0          0          0          0          0          0          0          0
  inttobinary      :       0.00       0.00      0          0          0          0          0          0          0          0          0          0
  qpkktref         :       0.00       0.00      0          0          0          0          0          0          0          0          0          0
  redvub           :       0.00       0.00      0          0          0          0          0          0          0          0          0          0
  sparsify         :       0.08       0.00      1          0          0          0          0          0          0          0          0          0
  stuffing         :       0.00       0.00      0          0          0          0          0          0          0          0          0          0
  trivial          :       0.04       0.00     12          0          0          0          0          0          0          0          0          0
  tworowbnd        :       0.00       0.00      0          0          0          0          0          0          0          0          0          0
  dualfix          :       0.04       0.00     12         46          0          0          0          0          0          0          0          0
  genvbounds       :       0.00       0.00      0          0          0          0          0          0          0          0          0          0
  probing          :       0.48       0.00      1         32          0          0          0          0          0          0          0          0
  pseudoobj        :       0.01       0.00      1          0          0          0          0          0          0          0          0          0
  symmetry         :       0.00       0.00      0          0          0          0          0          0          0          0          0          0
  vbounds          :       0.03       0.00      1          0          0          0          0          0          0          0          0          0
  knapsack         :       0.37       0.02     20          0          0          0          0          0          0          0        104      31096
  setppc           :       0.71       0.01     20          0          4          0          0          0        283          4          0          0
  linear           :       2.65       0.10     14          0          1          0          0          0        396          0        170        935
  benders          :       0.00       0.00      0          0          0          0          0          0          0          0          0          0
  components       :       0.10       0.00      1          0          0          0          0          0          0          0          0          0
  root node        :          -          -      -          1          -          -          1          -          -          -          -          -
Constraints        :     Number  MaxNumber  #Separate #Propagate    #EnfoLP    #EnfoRelax  #EnfoPS    #Check   #ResProp    Cutoffs    DomReds       Cuts    Applied      Conss   Children
  benderslp        :          0          0          0          0          0          0          0         18          0          0          0          0          0          0          0
  integral         :          0          0          0          0          0          0          0         18          0          0          0          0          0          0          0
  knapsack         :        634        634         13       7067          0          0          0         13        640          6          0        279        113          0          0
  setppc           :       1218+      1221         13       7061          0          0          0          3        258          0          0          0          0          0          0
  benders          :          0          0          0          0          0          0          0          5          0          0          0          0          0          0          0
  countsols        :          0          0          0          0          0          0          0          5          0          0          0          0          0          0          0
  components       :          0          0          0          0          0          0          0          0          0          0          0          0          0          0          0
Constraint Timings :  TotalTime  SetupTime   Separate  Propagate     EnfoLP     EnfoPS     EnfoRelax   Check    ResProp    SB-Prop
  benderslp        :       0.00       0.00       0.00       0.00       0.00       0.00       0.00       0.00       0.00       0.00
  integral         :       0.03       0.00       0.00       0.00       0.00       0.00       0.00       0.03       0.00       0.00
  knapsack         :      10.59       0.02       5.03       5.49       0.00       0.00       0.00       0.04       0.00       0.00
  setppc           :       1.21       0.01       0.04       1.14       0.00       0.00       0.00       0.02       0.00       0.00
  benders          :       0.00       0.00       0.00       0.00       0.00       0.00       0.00       0.00       0.00       0.00
  countsols        :       0.00       0.00       0.00       0.00       0.00       0.00       0.00       0.00       0.00       0.00
  components       :       0.00       0.00       0.00       0.00       0.00       0.00       0.00       0.00       0.00       0.00
Propagators        : #Propagate   #ResProp    Cutoffs    DomReds
  dualfix          :          3          0          0          1
  genvbounds       :          0          0          0          0
  nlobbt           :          0          0          0          0
  obbt             :          0          0          0          0
  probing          :          0          0          0          0
  pseudoobj        :         18          0          0          0
  redcost          :         15          0          0          0
  rootredcost      :          0          0          0          0
  symmetry         :          0          0          0          0
  vbounds          :        974          0          0          0
Propagator Timings :  TotalTime  SetupTime   Presolve  Propagate    ResProp    SB-Prop
  dualfix          :       0.04       0.00       0.04       0.01       0.00       0.00
  genvbounds       :       0.00       0.00       0.00       0.00       0.00       0.00
  nlobbt           :       0.00       0.00       0.00       0.00       0.00       0.00
  obbt             :       0.00       0.00       0.00       0.00       0.00       0.00
  probing          :       0.48       0.00       0.48       0.00       0.00       0.00
  pseudoobj        :       0.03       0.00       0.01       0.02       0.00       0.00
  redcost          :       0.07       0.00       0.00       0.07       0.00       0.00
  rootredcost      :       0.00       0.00       0.00       0.00       0.00       0.00
  symmetry         :       0.00       0.00       0.00       0.00       0.00       0.00
  vbounds          :       0.05       0.00       0.03       0.02       0.00       0.00
Conflict Analysis  :       Time      Calls    Success    DomReds  Conflicts   Literals    Reconvs ReconvLits   Dualrays   Nonzeros   LP Iters   (pool size: [10000,10000])
  propagation      :       0.00          6          6          -         11       45.0          0        0.0          -          -          -
  infeasible LP    :       0.00          0          0          -          0        0.0          0        0.0          0        0.0          0
  bound exceed. LP :       5.52          1          0          -          0        0.0          0        0.0          0        0.0         20
  strong branching :       0.00          0          0          -          0        0.0          0        0.0          -          -          0
  pseudo solution  :       0.00          0          0          -          0        0.0          0        0.0          -          -          -
  applied globally :       0.00          -          -          0          6        2.0          -          -          0          -          -
  applied locally  :          -          -          -          0          0        0.0          -          -          0          -          -
Separators         :   ExecTime  SetupTime      Calls  RootCalls    Cutoffs    DomReds  FoundCuts ViaPoolAdd  DirectAdd    Applied ViaPoolApp  DirectApp      Conss
  cut pool         :       0.04          -         25         25          -          -        882        320          -          -          -          -          -    (maximal pool size:        882)
  aggregation      :       0.98       0.00         13         13          0          0          1          0          0          0          0          0          0
  > cmir           :          -          -          -          -          -          -          -          0          0          0          0          0          -
  > flowcover      :          -          -          -          -          -          -          -          0          0          0          0          0          -
  > knapsackcover  :          -          -          -          -          -          -          -          0          0          0          0          0          -
  cgmip            :       0.00       0.00          0          0          0          0          0          0          0          0          0          0          0
  clique           :       0.07       0.00         13         13          0          0         24          1          0          1          1          0          0
  closecuts        :       0.00       0.00          0          0          0          0          0          0          0          0          0          0          0
  convexproj       :       0.00       0.00          0          0          0          0          0          0          0          0          0          0          0
  disjunctive      :       0.00       0.00          0          0          0          0          0          0          0          0          0          0          0
  eccuts           :       0.00       0.00          0          0          0          0          0          0          0          0          0          0          0
  gauge            :       0.00       0.00          0          0          0          0          0          0          0          0          0          0          0
  gomory           :       2.62       0.00         10         10          0          0        787        274          0        126        126          0          0
  > gomorymi       :          -          -          -          -          -          -          -         90          0         61         61          0          -
  > strongcg       :          -          -          -          -          -          -          -        184          0         65         65          0          -
  impliedbounds    :       0.04       0.00         13         13          0          0          0          0          0          0          0          0          0
  interminor       :       0.00       0.00          0          0          0          0          0          0          0          0          0          0          0
  intobj           :       0.00       0.00          0          0          0          0          0          0          0          0          0          0          0
  mcf              :       0.02       0.00          1          1          0          0          0          0          0          0          0          0          0
  minor            :       0.00       0.00          0          0          0          0          0          0          0          0          0          0          0
  mixing           :       0.00       0.00          0          0          0          0          0          0          0          0          0          0          0
  oddcycle         :       0.00       0.00          0          0          0          0          0          0          0          0          0          0          0
  rapidlearning    :       0.03       0.00          0          0          0          0          0          0          0          0          0          0          0
  rlt              :       0.00       0.00         10         10          0          0          0          0          0          0          0          0          0
  zerohalf         :       1.90       0.00         13         13          0          0         70         45          0         28         28          0          0
Cutselectors       :   ExecTime  SetupTime      Calls  RootCalls   Selected     Forced   Filtered  RootSelec   RootForc   RootFilt 
  hybrid           :       0.01       0.00         13         13        268          0        331        268          0        331
Pricers            :   ExecTime  SetupTime      Calls       Vars
  problem variables:       0.00          -          0          0
Branching Rules    :   ExecTime  SetupTime   BranchLP  BranchExt   BranchPS    Cutoffs    DomReds       Cuts      Conss   Children
  allfullstrong    :       0.00       0.00          0          0          0          0          0          0          0          0
  cloud            :       0.00       0.00          0          0          0          0          0          0          0          0
  distribution     :       0.00       0.00          0          0          0          0          0          0          0          0
  fullstrong       :       0.00       0.00          0          0          0          0          0          0          0          0
  inference        :       0.00       0.00          0          0          0          0          0          0          0          0
  leastinf         :       0.00       0.00          0          0          0          0          0          0          0          0
  lookahead        :       0.00       0.00          0          0          0          0          0          0          0          0
  mostinf          :       0.00       0.00          0          0          0          0          0          0          0          0
  multaggr         :       0.00       0.00          0          0          0          0          0          0          0          0
  nodereopt        :       0.00       0.00          0          0          0          0          0          0          0          0
  pscost           :       0.00       0.00          0          0          0          0          0          0          0          0
  random           :       0.00       0.00          0          0          0          0          0          0          0          0
  relpscost        :       0.00       0.00          0          0          0          0          0          0          0          0
  vanillafullstrong:       0.00       0.00          0          0          0          0          0          0          0          0
Primal Heuristics  :   ExecTime  SetupTime      Calls      Found       Best
  LP solutions     :       0.00          -          -          0          0
  relax solutions  :       0.00          -          -          0          0
  pseudo solutions :       0.00          -          -          0          0
  strong branching :       0.00          -          -          0          0
  actconsdiving    :       0.00       0.00          0          0          0
  adaptivediving   :       0.00       0.00          0          0          0
  alns             :       0.00       0.00          0          0          0
  bound            :       0.00       0.00          0          0          0
  clique           :       1.60       0.00          1          1          1
  coefdiving       :       0.00       0.00          0          0          0
  completesol      :       0.00       0.00          0          0          0
  conflictdiving   :       0.00       0.00          0          0          0
  crossover        :       0.00       0.00          0          0          0
  dins             :       0.00       0.00          0          0          0
  distributiondivin:       0.00       0.00          0          0          0
  dps              :       0.00       0.00          0          0          0
  dualval          :       0.00       0.00          0          0          0
  farkasdiving     :       7.90       0.00          1          1          1
  feaspump         :       0.00       0.00          0          0          0
  fixandinfer      :       0.00       0.00          0          0          0
  fracdiving       :       0.00       0.00          0          0          0
  gins             :       0.00       0.00          0          0          0
  guideddiving     :       0.00       0.00          0          0          0
  indicator        :       0.00       0.00          0          0          0
  intdiving        :       0.00       0.00          0          0          0
  intshifting      :       0.00       0.00          0          0          0
  linesearchdiving :       0.00       0.00          0          0          0
  localbranching   :       0.00       0.00          0          0          0
  locks            :       6.27       0.00          1          0          0
  lpface           :       0.00       0.00          0          0          0
  mpec             :       0.00       0.00          0          0          0
  multistart       :       0.00       0.00          0          0          0
  mutation         :       0.00       0.00          0          0          0
  nlpdiving        :       0.00       0.00          0          0          0
  objpscostdiving  :       0.00       0.00          0          0          0
  octane           :       0.00       0.00          0          0          0
  ofins            :       0.00       0.00          0          0          0
  oneopt           :       0.04       0.00          1          0          0
  padm             :       0.00       0.00          0          0          0
  proximity        :       0.00       0.00          0          0          0
  pscostdiving     :       0.00       0.00          0          0          0
  randrounding     :       5.86       0.00         14          0          0
  rens             :       0.00       0.00          0          0          0
  reoptsols        :       0.00       0.00          0          0          0
  repair           :       0.00       0.00          0          0          0
  rins             :       0.00       0.00          0          0          0
  rootsoldiving    :       0.00       0.00          0          0          0
  rounding         :       0.08       0.00         14          0          0
  shiftandpropagate:       0.00       0.00          0          0          0
  shifting         :       0.09       0.00         14          0          0
  simplerounding   :       0.00       0.00         14          0          0
  subnlp           :       0.00       0.00          0          0          0
  trivial          :       0.16       0.00          2          1          1
  trivialnegation  :       0.00       0.00          0          0          0
  trustregion      :       0.00       0.00          0          0          0
  trysol           :       0.00       0.00          0          0          0
  twoopt           :       0.00       0.00          0          0          0
  undercover       :       0.00       0.00          0          0          0
  vbounds          :       0.02       0.00          0          0          0
  veclendiving     :       0.00       0.00          0          0          0
  zeroobj          :       0.00       0.00          0          0          0
  zirounding       :       0.00       0.00          1          0          0
  other solutions  :          -          -          -          0          -
LP                 :       Time      Calls Iterations  Iter/call   Iter/sec  Time-0-It Calls-0-It    ItLimit
  primal LP        :       0.00          0          0       0.00          -       0.00          0
  dual LP          :       8.79         14      13445     960.36    1529.92       0.00          0
  lex dual LP      :       0.00          0          0       0.00          -
  barrier LP       :       0.00          0          0       0.00          -       0.00          0
  resolve instable :       0.00          0          0       0.00          -
  diving/probing LP:       5.21        114       6105      53.55    1171.75
  strong branching :       0.00          0          0       0.00          -          -          -          0
    (at root node) :          -          0          0       0.00          -
  conflict analysis:       0.01          2         20      10.00          -
B&B Tree           :
  number of runs   :          1
  nodes            :          1 (0 internal, 1 leaves)
  feasible leaves  :          0
  infeas. leaves   :          0
  objective leaves :          1
  nodes (total)    :          1 (0 internal, 1 leaves)
  nodes left       :          0
  max depth        :          0
  max depth (total):          0
  backtracks       :          0 (0.0%)
  early backtracks :          0 (0.0%)
  nodes exc. ref.  :          0 (0.0%)
  delayed cutoffs  :          0
  repropagations   :          0 (0 domain reductions, 0 cutoffs)
  avg switch length:       2.00
  switching time   :       0.00
Root Node          :
  First LP value   : -2.37804444444444e+02
  First LP Iters   :         84 (158.11 Iter/sec)
  First LP Time    :       0.53
  Final Dual Bound : -2.37768888888889e+02
  Final Root Iters :      13445
  Root LP Estimate :                     -
Solution           :
  Solutions found  :          3 (3 improvements)
  First Solution   : +0.00000000000000e+00   (in run 1, after 0 nodes, 0.26 seconds, depth 0, found by <trivial>)
  Gap First Sol.   :   infinite
  Gap Last Sol.    :       0.00 %
  Primal Bound     : -2.37768888888889e+02   (in run 1, after 1 nodes, 47.48 seconds, depth 114, found by <farkasdiving>)
  Dual Bound       : -2.37768888888889e+02
  Gap              :       0.00 %
Integrals          :      Total       Avg%
  primal-dual      :    1544.11      32.46
  primal-ref       :          -          - (not evaluated)
  dual-ref         :          -          - (not evaluated)
written solution information to file <results/final_miplib_symretope_if_extended_generating_set_cpx_v802__settings_final_nosym_norestarts__4__neos-956971.mps.gz.sol>
@04 1686664555
